objective value:                                  -11
t_n_5                                               1 	(obj:-1)
t_n_316                                             1 	(obj:-1)
t_n_514                                             1 	(obj:-1)
t_n_647                                             1 	(obj:-1)
t_n_696                                             1 	(obj:-1)
t_n_720                                             1 	(obj:-1)
t_n_763                                             1 	(obj:-1)
t_n_774                                             1 	(obj:-1)
t_n_842                                             1 	(obj:-1)
t_n_941                                             1 	(obj:-1)
t_n_951                                             1 	(obj:-1)
